(set-option :produce-models true)
(set-logic QF_UF)
(declare-fun p10() Bool)
(declare-fun p11() Bool)
(declare-fun p9() Bool)
(declare-fun p6() Bool)
(declare-fun p5() Bool)
(declare-fun p14() Bool)
(declare-fun p8() Bool)
(declare-fun p3() Bool)
(declare-fun p0() Bool)
(declare-fun p1() Bool)
(declare-fun p4() Bool)
(declare-fun p7() Bool)
(declare-fun p2() Bool)
(declare-fun p13() Bool)
(declare-fun p12() Bool)
(assert
(and (or (not p10) p11 (not p11)) (or (not p9) p6 (not p9)) (or p5 p14 (not p8)) (or (not p3) p0 p1) (or p8 (not p9) p0) (or p4 p7 p2) (or (not p10) p3 p8) (or (not p0) (not p9) (not p4)) (or (not p4) p7 p7) (or (not p8) (not p14) p6) (or (not p6) (not p10) p0) (or (not p3) p5 p1) (or (not p5) p9 (not p14)) (or (not p7) p1 (not p11)) (or p9 (not p1) (not p9)) (or p4 p7 p3) (or (not p9) p4 (not p10)) (or (not p2) (not p13) (not p8)) (or p2 (not p9) (not p9)) (or (not p12) p8 (not p5)) (or (not p1) p11 p3) (or (not p11) (not p13) p9) (or p13 p3 (not p10)) (or p5 (not p12) p10) (or p7 (not p3) (not p0)) (or p4 p13 p14) (or p13 (not p5) p13) (or p13 p4 (not p0)) (or (not p2) (not p14) p13) (or p6 (not p1) (not p7)) (or (not p9) p8 (not p5)) (or (not p9) (not p0) (not p7)) (or p3 (not p8) (not p7)) (or p14 p4 p7) (or (not p3) (not p1) (not p13)) (or (not p10) p12 (not p13)) (or (not p8) (not p13) (not p14)) (or p3 (not p7) p8) (or p2 (not p3) (not p9)) (or p3 (not p2) (not p11)) (or (not p13) (not p10) p11) (or (not p3) p14 p11) (or (not p10) p7 p10) (or p12 (not p2) p5) (or p13 p6 (not p7)) (or p2 p8 (not p7)) (or p6 (not p9) (not p14)) (or (not p10) p7 p8) (or p4 (not p10) (not p11)) (or p7 p3 (not p2)) (or (not p11) (not p6) p14) (or p3 p13 p1) (or p9 p11 p5) (or p10 p9 (not p8)) (or (not p12) p13 p4) (or (not p9) p12 p14) (or (not p10) (not p10) (not p3)) (or (not p8) (not p9) (not p1)) (or p2 p3 (not p1)) (or p10 (not p14) (not p12)) (or (not p10) p6 (not p13)) (or (not p12) (not p14) p2) (or (not p14) p10 (not p2)) (or p12 (not p12) p8) (or (not p6) p9 (not p11)) (or (not p4) (not p1) (not p11)) (or (not p9) (not p3) (not p3)) (or p12 (not p13) (not p2)) (or p12 p11 (not p14)))
)
(check-sat)
(get-model)
